     Program PHONON v.6.1 (svn rev. 13369) starts on 31Oct2017 at 12:11:45

     Reading data from directory:
     ./aluminium.bcc.save

   Info: using nr1, nr2, nr3 values from input

[...]

     IMPORTANT: XC functional enforced from input :
     Exchange-correlation      =  SLA  PW   PBX  PBC ( 1  4  3  4 0 0)
     Any further DFT definition will be discarded
     Please, verify this is what you really want

               file Al.pbe-n-kjpaw_psl.1.0.0.UPF: wavefunction(s)  3S 3P renormalized

     Dynamical matrices for (12,12,12)  uniform grid of q-points
     (  72q-points):
       N         xq(1)         xq(2)         xq(3)
       1   0.000000000   0.000000000   0.000000000
       2   0.000000000  -0.083333333   0.083333333
       3   0.000000000  -0.166666667   0.166666667
       4   0.000000000  -0.250000000   0.250000000
       5   0.000000000  -0.333333333   0.333333333
       6   0.000000000  -0.416666667   0.416666667
       7   0.000000000   0.500000000  -0.500000000
       8  -0.083333333  -0.083333333   0.166666667
       9  -0.083333333  -0.166666667   0.250000000
      10  -0.083333333  -0.250000000   0.333333333
      11  -0.083333333  -0.333333333   0.416666667
      12  -0.083333333   0.583333333  -0.500000000
      13  -0.166666667  -0.166666667   0.333333333
      14  -0.166666667  -0.250000000   0.416666667
      15  -0.166666667   0.666666667  -0.500000000
      16  -0.166666667   0.583333333  -0.416666667
      17  -0.250000000   0.750000000  -0.500000000
      18  -0.250000000   0.666666667  -0.416666667
      19  -0.333333333   0.666666667  -0.333333333
      20   0.000000000   0.000000000   0.166666667
      21   0.000000000  -0.083333333   0.250000000
      22   0.000000000  -0.166666667   0.333333333
      23   0.000000000  -0.250000000   0.416666667
      24   0.000000000  -0.333333333   0.500000000
      25   0.000000000   0.583333333  -0.416666667
      26  -0.083333333  -0.083333333   0.333333333
      27  -0.083333333  -0.166666667   0.416666667
      28  -0.083333333  -0.250000000   0.500000000
      29  -0.083333333   0.666666667  -0.416666667
      30  -0.166666667   0.166666667   0.166666667
      31  -0.166666667  -0.166666667   0.500000000
      32  -0.166666667   0.750000000  -0.416666667
      33  -0.166666667   0.666666667  -0.333333333
      34  -0.250000000   0.250000000   0.166666667
      35  -0.250000000   0.750000000  -0.333333333
      36  -0.333333333   0.333333333   0.166666667
      37  -0.333333333   0.250000000   0.250000000
      38   0.583333333  -0.583333333   0.166666667
      39   0.583333333  -0.666666667   0.250000000
      40   0.500000000  -0.500000000   0.166666667
      41   0.500000000  -0.583333333   0.250000000
      42   0.500000000  -0.666666667   0.333333333
      43   0.416666667  -0.583333333   0.333333333
      44   0.000000000   0.000000000   0.333333333
      45   0.000000000  -0.083333333   0.416666667
      46   0.000000000  -0.166666667   0.500000000
      47   0.000000000  -0.250000000   0.583333333
      48   0.000000000   0.666666667  -0.333333333
      49  -0.083333333  -0.083333333   0.500000000
      50  -0.083333333  -0.166666667   0.583333333
      51  -0.083333333   0.750000000  -0.333333333
      52  -0.166666667   0.833333333  -0.333333333
      53  -0.166666667   0.750000000  -0.250000000
      54   0.666666667  -0.666666667   0.333333333
      55   0.583333333  -0.583333333   0.333333333
      56   0.500000000  -0.500000000   0.333333333
      57   0.500000000  -0.583333333   0.416666667
      58   0.000000000   0.000000000   0.500000000
      59   0.000000000  -0.083333333   0.583333333
      60   0.000000000  -0.166666667   0.666666667
      61   0.000000000   0.750000000  -0.250000000
      62  -0.083333333  -0.083333333   0.666666667
      63  -0.083333333   0.833333333  -0.250000000
      64  -0.166666667   0.833333333  -0.166666667
      65   0.500000000  -0.500000000   0.500000000
      66   0.000000000   0.000000000   0.666666667
      67   0.000000000  -0.083333333   0.750000000
      68   0.000000000   0.833333333  -0.166666667
      69  -0.083333333   0.916666667  -0.166666667
      70   0.000000000   0.000000000   0.833333333
      71   0.000000000   0.916666667  -0.083333333
      72   0.000000000   0.000000000  -1.000000000

     Calculation of q =    0.0000000   0.0000000   0.0000000

     bravais-lattice index     =            3
     lattice parameter (alat)  =       6.1240  a.u.
     unit-cell volume          =     114.8353 (a.u.)^3
     number of atoms/cell      =            1
     number of atomic types    =            1
     kinetic-energy cut-off    =      30.0000  Ry
     charge density cut-off    =     120.0000  Ry
     convergence threshold     =      1.0E-12
     beta                      =       0.7000
     number of iterations used =            4
     Exchange-correlation      =  SLA  PW   PBX  PBC ( 1  4  3  4 0 0)

     celldm(1)=    6.12400  celldm(2)=    0.00000  celldm(3)=    0.00000
     celldm(4)=    0.00000  celldm(5)=    0.00000  celldm(6)=    0.00000

     crystal axes: (cart. coord. in units of alat)
               a(1) = (  0.5000  0.5000  0.5000 )
               a(2) = ( -0.5000  0.5000  0.5000 )
               a(3) = ( -0.5000 -0.5000  0.5000 )

     reciprocal axes: (cart. coord. in units 2 pi/alat)
               b(1) = (  1.0000  0.0000  1.0000 )
               b(2) = ( -1.0000  1.0000  0.0000 )
               b(3) = (  0.0000 -1.0000  1.0000 )

     Atoms inside the unit cell:

     Cartesian axes

     site n.  atom      mass           positions (alat units)
        1     Al  26.9820   tau(    1) = (    0.00000    0.00000    0.00000  )

     Computing dynamical matrix for
                    q = (   0.0000000   0.0000000   0.0000000 )

     49 Sym.Ops. (with q -> -q+G )

     G cutoff =  113.9966  (    623 G-vectors)     FFT grid: ( 20, 20, 20)

     number of k points=    68  gaussian smearing, width (Ry)=  0.0500

     PseudoPot. # 1 for Al read from file:
     /home/max/quantum_espresso/qe-6.1/pseudo/Al.pbe-n-kjpaw_psl.1.0.0.UPF
     MD5 check sum: dd5adf945272da8132fc805c9e56c2d6
     Pseudo is Projector augmented-wave + core cor, Zval =  3.0
     Generated using "atomic" code by A. Dal Corso  v.5.1
     Shape of augmentation charge: PSQ
     Using radial grid of 1135 points,  6 beta functions with:
                l(1) =   0
                l(2) =   0
                l(3) =   1
                l(4) =   1
                l(5) =   2
                l(6) =   2
     Q(r) pseudized with 0 coefficients

     Mode symmetry, O_h (m-3m)  point group:

     Atomic displacements:
     There are   1 irreducible representations

     Representation     1      3 modes -T_1u G_15  G_4-  To be done

     Alpha used in Ewald sum =   1.4000

     Representation #  1 modes #   1  2  3

     Self-consistent Calculation

     Pert. #  1: Fermi energy shift (Ry) =    -2.1024E-24    -1.5046E-36
     Pert. #  2: Fermi energy shift (Ry) =    -1.6888E-24     3.2600E-36
     Pert. #  3: Fermi energy shift (Ry) =     6.8932E-26    -7.5232E-37

      thresh= 1.000E-02 alpha_mix =  0.700 |ddv_scf|^2 =  7.755E-08

[...]

     Pert. #  1: Fermi energy shift (Ry) =     6.8932E-26    -9.6045E-40
     Pert. #  2: Fermi energy shift (Ry) =     6.8932E-26    -2.4872E-41
     Pert. #  3: Fermi energy shift (Ry) =     4.9975E-25    -2.5255E-40

[...]

     End of self-consistent calculation

     Convergence has been achieved

     Number of q in the star =    1
     List of q in the star:
          1   0.000000000   0.000000000   0.000000000

     Diagonalizing the dynamical matrix

     q = (    0.000000000   0.000000000   0.000000000 )

     freq (    1) =      -0.121776 [THz] =      -4.062025 [cm-1]
     freq (    2) =      -0.121776 [THz] =      -4.062025 [cm-1]
     freq (    3) =      -0.121776 [THz] =      -4.062025 [cm-1]

[...]

     freq (  1 -  3) =         -4.1  [cm-1]   --> T_1u G_15  G_4- I

[...]

     bravais-lattice index     =            3
     lattice parameter (alat)  =       6.1240  a.u.
     unit-cell volume          =     114.8353 (a.u.)^3
     number of atoms/cell      =            1
     number of atomic types    =            1
     number of electrons       =         3.00
     number of Kohn-Sham states=            6
     kinetic-energy cutoff     =      30.0000  Ry
     charge density cutoff     =     120.0000  Ry
     Exchange-correlation      =  SLA  PW   PBX  PBC ( 1  4  3  4 0 0)

[...]

     atomic species   valence    mass     pseudopotential
        Al             3.00    26.98200     Al( 1.00)

     48 Sym. Ops., with inversion, found

[...]

     site n.     atom                  positions (alat units)
         1           Al  tau(   1) = (   0.0000000   0.0000000   0.0000000  )

[...]

     Number of k-points >= 100: set verbosity='high' to print them.

     The potential is recalculated from file :
     ./_ph0/aluminium.bcc.save/charge-density.dat

     Starting wfc are    4 atomic +    2 random wfc
     Checking if some PAW data can be deallocated...

     Band Structure Calculation
     Davidson diagonalization with overlap

     ethr =  3.33E-10,  avg # of iterations = 15.9

     End of band structure calculation

     Number of k-points >= 100: set verbosity='high' to print the bands.

     the Fermi energy is     7.5871 ev

     Writing output data file aluminium.bcc.save

[...]

      4 Sym.Ops. (no q -> -q+G )

[...]

     Mode symmetry, C_2v (mm2)  point group:

[...]

     Representation     1      1 modes -A_1  D_1  S_1  To be done

[...]

     Representation #  1 mode #   1

[...]

     freq (  1 -  1) =        -30.9  [cm-1]   --> B_1  D_3  S_3
     freq (  2 -  2) =         47.0  [cm-1]   --> B_2  D_4  S_4
     freq (  3 -  3) =         77.0  [cm-1]   --> A_1  D_1  S_1

[...]

     Mode symmetry, D_2h (mmm)  point group:

[...]

     Representation     1      1 modes -B_1u  To be done

[...]

     Representation     3      1 modes -B_3u  To be done

[...]

     Mode symmetry, D_2h (mmm)  point group:

     freq (  1 -  1) =       -107.1  [cm-1]   --> B_2u
     freq (  2 -  2) =        196.6  [cm-1]   --> B_1u
     freq (  3 -  3) =        301.3  [cm-1]   --> B_3u

[...]

     Mode symmetry, C_s (m)     point group:

[...]

     Representation     1      1 modes -A'  To be done

[...]

     Representation     3      1 modes -A''  To be done

[...]

     freq (  1 -  1) =        -29.8  [cm-1]   --> A'
     freq (  2 -  2) =         60.2  [cm-1]   --> A''
     freq (  3 -  3) =        131.5  [cm-1]   --> A'

[...]

     No symmetry!

[...]

     Mode symmetry, C_1 (1)     point group:

[...]

     Representation     1      1 modes -A  To be done

[...]

     freq (  1 -  1) =        -58.6  [cm-1]   --> A
     freq (  2 -  2) =        103.4  [cm-1]   --> A
     freq (  3 -  3) =        191.5  [cm-1]   --> A

[...]

     freq (  1 -  1) =        -38.9  [cm-1]   --> A'
     freq (  2 -  2) =        205.0  [cm-1]   --> A'
     freq (  3 -  3) =        290.0  [cm-1]   --> A''

[...]

     Mode symmetry, C_3v (3m)   point group:

[...]

     Representation     1      1 modes -A_1  L_1  To be done

     Representation     2      2 modes -E    L_3  To be done

[...]

     freq (  1 -  1) =         85.8  [cm-1]   --> A_1  L_1
     freq (  2 -  3) =        249.8  [cm-1]   --> E    L_3

[...]

     Mode symmetry, C_4v (4mm)  point group:

[...]

     Representation     2      2 modes -E    G_5 D_5  To be done

[...]

     freq (  1 -  2) =         66.7  [cm-1]   --> E    G_5 D_5
     freq (  3 -  3) =         70.9  [cm-1]   --> A_1  G_1 D_1

[...]

     freq (  1 -  2) =         34.7  [cm-1]   --> E    L_3
     freq (  3 -  3) =        184.8  [cm-1]   --> A_1  L_1

[...]

     freq (  1 -  1) =        -46.0  [cm-1]   --> A''
     freq (  2 -  2) =        100.8  [cm-1]   --> A'
     freq (  3 -  3) =        232.5  [cm-1]   --> A'

[...]

     freq (  1 -  1) =        169.2  [cm-1]   --> A'
     freq (  2 -  2) =        255.0  [cm-1]   --> A'
     freq (  3 -  3) =        278.7  [cm-1]   --> A''

[...]

     freq (  1 -  2) =        111.2  [cm-1]   --> E    L_3
     freq (  3 -  3) =        274.7  [cm-1]   --> A_1  L_1

[...]

     freq (  1 -  1) =        109.1  [cm-1]   --> A''
     freq (  2 -  2) =        165.3  [cm-1]   --> A'
     freq (  3 -  3) =        265.5  [cm-1]   --> A'

[...]

     No symmetry!

[...]

     Representation     3      1 modes -A  To be done

[...]

     Mode symmetry, C_1 (1)     point group:

     freq (  1 -  1) =        210.4  [cm-1]   --> A
     freq (  2 -  2) =        252.2  [cm-1]   --> A
     freq (  3 -  3) =        279.4  [cm-1]   --> A

[...]

     Representation     1      1 modes -A_1  L_1  To be done

     Representation     2      2 modes -E    L_3  To be done

[...]

     Mode symmetry, C_3v (3m)   point group:

     freq (  1 -  1) =        212.9  [cm-1]   --> A_1  L_1
     freq (  2 -  3) =        270.2  [cm-1]   --> E    L_3

[...]

     Mode symmetry, T_d (-43m)  point group:

[...]

     Mode symmetry, T_d (-43m)  point group:

[...]

     Representation     2      1 modes -A'  To be done

     Representation     3      1 modes -A''  To be done

[...]

     Mode symmetry, C_s (m)     point group:

     freq (  1 -  1) =        245.0  [cm-1]   --> A'
     freq (  2 -  2) =        264.6  [cm-1]   --> A''
     freq (  3 -  3) =        272.1  [cm-1]   --> A'

[...]

     Representation     2      2 modes -E    G_5 D_5  To be done

[...]

     Mode symmetry, C_4v (4mm)  point group:

     freq (  1 -  2) =        262.7  [cm-1]   --> E    G_5 D_5
     freq (  3 -  3) =        267.8  [cm-1]   --> A_1  G_1 D_1

[...]

      4 Sym.Ops. (no q -> -q+G )

[...]

     Representation     3      1 modes -B_2  D_4  S_4  To be done

[...]

     Representation #  3 mode #   3

[...]

     Mode symmetry, C_2v (mm2)  point group:

     freq (  1 -  1) =        262.5  [cm-1]   --> A_1  D_1  S_1
     freq (  2 -  2) =        265.3  [cm-1]   --> B_1  D_3  S_3
     freq (  3 -  3) =        270.6  [cm-1]   --> B_2  D_4  S_4

     Calculation of q =    0.0000000   0.0000000  -1.0000000

[...]

   Info: using nr1, nr2, nr3 values from input

     bravais-lattice index     =            3
     lattice parameter (alat)  =       6.1240  a.u.
     unit-cell volume          =     114.8353 (a.u.)^3
     number of atoms/cell      =            1
     number of atomic types    =            1
     number of electrons       =         3.00
     number of Kohn-Sham states=            6
     kinetic-energy cutoff     =      30.0000  Ry
     charge density cutoff     =     120.0000  Ry
     Exchange-correlation      =  SLA  PW   PBX  PBC ( 1  4  3  4 0 0)

[...]

     atomic species   valence    mass     pseudopotential
        Al             3.00    26.98200     Al( 1.00)

     48 Sym. Ops., with inversion, found

[...]

     site n.     atom                  positions (alat units)
         1           Al  tau(   1) = (   0.0000000   0.0000000   0.0000000  )

[...]

     Number of k-points >= 100: set verbosity='high' to print them.

     The potential is recalculated from file :
     ./_ph0/aluminium.bcc.save/charge-density.dat

     Starting wfc are    4 atomic +    2 random wfc
     Checking if some PAW data can be deallocated...

     Band Structure Calculation
     Davidson diagonalization with overlap

     ethr =  3.33E-10,  avg # of iterations = 16.2

     End of band structure calculation

     Number of k-points >= 100: set verbosity='high' to print the bands.

     the Fermi energy is     7.5871 ev

     Writing output data file aluminium.bcc.save

     bravais-lattice index     =            3
     lattice parameter (alat)  =       6.1240  a.u.
     unit-cell volume          =     114.8353 (a.u.)^3
     number of atoms/cell      =            1
     number of atomic types    =            1
     kinetic-energy cut-off    =      30.0000  Ry
     charge density cut-off    =     120.0000  Ry
     convergence threshold     =      1.0E-12
     beta                      =       0.7000
     number of iterations used =            4
     Exchange-correlation      =  SLA  PW   PBX  PBC ( 1  4  3  4 0 0)

     celldm(1)=    6.12400  celldm(2)=    0.00000  celldm(3)=    0.00000
     celldm(4)=    0.00000  celldm(5)=    0.00000  celldm(6)=    0.00000

     crystal axes: (cart. coord. in units of alat)
               a(1) = (  0.5000  0.5000  0.5000 )
               a(2) = ( -0.5000  0.5000  0.5000 )
               a(3) = ( -0.5000 -0.5000  0.5000 )

     reciprocal axes: (cart. coord. in units 2 pi/alat)
               b(1) = (  1.0000  0.0000  1.0000 )
               b(2) = ( -1.0000  1.0000  0.0000 )
               b(3) = (  0.0000 -1.0000  1.0000 )

     Atoms inside the unit cell:

     Cartesian axes

     site n.  atom      mass           positions (alat units)
        1     Al  26.9820   tau(    1) = (    0.00000    0.00000    0.00000  )

     Computing dynamical matrix for
                    q = (   0.0000000   0.0000000  -1.0000000 )

     49 Sym.Ops. (with q -> -q+G )

     G cutoff =  113.9966  (    623 G-vectors)     FFT grid: ( 20, 20, 20)

     number of k points=   136  gaussian smearing, width (Ry)=  0.0500

     PseudoPot. # 1 for Al read from file:
     /home/max/quantum_espresso/qe-6.1/pseudo/Al.pbe-n-kjpaw_psl.1.0.0.UPF
     MD5 check sum: dd5adf945272da8132fc805c9e56c2d6
     Pseudo is Projector augmented-wave + core cor, Zval =  3.0
     Generated using "atomic" code by A. Dal Corso  v.5.1
     Shape of augmentation charge: PSQ
     Using radial grid of 1135 points,  6 beta functions with:
                l(1) =   0
                l(2) =   0
                l(3) =   1
                l(4) =   1
                l(5) =   2
                l(6) =   2
     Q(r) pseudized with 0 coefficients

[...]

     Atomic displacements:
     There are   1 irreducible representations

     Representation     1      3 modes -T_1u G_15  G_4-  To be done

     Alpha used in Ewald sum =   1.4000

     Representation #  1 modes #   1  2  3

     Self-consistent Calculation

[...]

      thresh= 4.908E-07 alpha_mix =  0.700 |ddv_scf|^2 =  5.623E-15

     End of self-consistent calculation

     Convergence has been achieved

     Number of q in the star =    1
     List of q in the star:
          1   0.000000000   0.000000000  -1.000000000

     Diagonalizing the dynamical matrix

     q = (    0.000000000   0.000000000  -1.000000000 )

     freq (    1) =       8.035060 [THz] =     268.020740 [cm-1]
     freq (    2) =       8.035060 [THz] =     268.020740 [cm-1]
     freq (    3) =       8.035060 [THz] =     268.020740 [cm-1]

     Mode symmetry, O_h (m-3m)  point group:

     freq (  1 -  3) =        268.0  [cm-1]   --> T_1u G_15  G_4-

     General routines

     Parallel routines

     INITIALIZATION:

     DYNAMICAL MATRIX:

      General routines

   This run was terminated on:  13: 3:31  31Oct2017

   JOB DONE.